c Reduced graph for p38 generated by Cyril Grelier
p edge 85 524
e 1 3
e 1 4
e 1 19
e 1 21
e 1 25
e 1 39
e 1 42
e 1 50
e 1 58
e 1 64
e 1 70
e 1 71
e 1 80
e 2 6
e 2 22
e 2 25
e 2 30
e 2 33
e 2 35
e 2 45
e 2 48
e 2 55
e 2 60
e 2 63
e 2 70
e 2 72
e 2 78
e 2 84
e 3 4
e 3 19
e 3 21
e 3 25
e 3 33
e 3 42
e 3 44
e 3 46
e 3 58
e 3 65
e 4 12
e 4 13
e 4 19
e 4 20
e 4 21
e 4 25
e 4 35
e 4 38
e 4 42
e 4 58
e 4 68
e 4 75
e 5 8
e 5 11
e 5 15
e 5 23
e 5 24
e 5 26
e 5 29
e 5 31
e 5 36
e 5 45
e 5 57
e 5 77
e 6 12
e 6 25
e 6 45
e 6 46
e 6 48
e 6 55
e 6 60
e 6 63
e 6 78
e 6 85
e 7 16
e 7 18
e 7 20
e 7 28
e 7 30
e 7 40
e 7 51
e 7 64
e 7 76
e 7 78
e 8 23
e 8 31
e 8 34
e 8 45
e 8 56
e 8 57
e 8 66
e 8 69
e 8 76
e 8 81
e 8 85
e 9 10
e 9 28
e 9 32
e 9 34
e 9 43
e 9 48
e 9 49
e 9 57
e 9 61
e 9 68
e 9 73
e 9 77
e 10 13
e 10 26
e 10 43
e 10 47
e 10 50
e 10 57
e 10 61
e 10 65
e 10 67
e 10 74
e 10 82
e 11 15
e 11 24
e 11 26
e 11 29
e 11 36
e 11 39
e 11 52
e 11 53
e 11 60
e 11 66
e 11 77
e 12 13
e 12 20
e 12 35
e 12 38
e 12 46
e 12 68
e 12 75
e 12 85
e 13 20
e 13 26
e 13 35
e 13 38
e 13 47
e 13 50
e 13 65
e 13 67
e 13 68
e 13 74
e 13 75
e 13 82
e 14 15
e 14 18
e 14 27
e 14 37
e 14 49
e 14 51
e 14 53
e 14 54
e 14 58
e 14 74
e 14 83
e 15 18
e 15 24
e 15 26
e 15 29
e 15 36
e 15 77
e 15 83
e 16 17
e 16 18
e 16 24
e 16 27
e 16 28
e 16 30
e 16 59
e 16 71
e 17 24
e 17 27
e 17 31
e 17 40
e 17 59
e 17 71
e 17 72
e 17 82
e 18 28
e 18 30
e 18 83
e 19 21
e 19 22
e 19 23
e 19 25
e 19 42
e 19 47
e 19 52
e 19 58
e 19 59
e 19 62
e 19 73
e 19 79
e 19 83
e 20 35
e 20 38
e 20 40
e 20 51
e 20 64
e 20 68
e 20 75
e 20 76
e 20 78
e 21 25
e 21 41
e 21 42
e 21 58
e 21 67
e 21 84
e 22 23
e 22 30
e 22 33
e 22 35
e 22 47
e 22 52
e 22 59
e 22 62
e 22 70
e 22 72
e 22 73
e 22 79
e 22 83
e 22 84
e 23 31
e 23 45
e 23 47
e 23 52
e 23 57
e 23 59
e 23 62
e 23 73
e 23 79
e 23 83
e 24 26
e 24 27
e 24 29
e 24 36
e 24 59
e 24 71
e 24 77
e 25 42
e 25 45
e 25 48
e 25 55
e 25 58
e 25 60
e 25 63
e 25 78
e 26 29
e 26 36
e 26 47
e 26 50
e 26 65
e 26 67
e 26 74
e 26 77
e 26 82
e 27 37
e 27 49
e 27 51
e 27 53
e 27 54
e 27 58
e 27 59
e 27 71
e 27 74
e 28 30
e 28 32
e 28 34
e 28 48
e 28 49
e 28 68
e 28 73
e 28 77
e 29 36
e 29 38
e 29 54
e 29 63
e 29 77
e 29 79
e 29 81
e 30 33
e 30 35
e 30 70
e 30 72
e 30 84
e 31 40
e 31 45
e 31 57
e 31 72
e 31 82
e 32 34
e 32 42
e 32 48
e 32 49
e 32 68
e 32 73
e 32 77
e 33 35
e 33 44
e 33 46
e 33 65
e 33 70
e 33 72
e 33 84
e 34 48
e 34 49
e 34 56
e 34 66
e 34 68
e 34 69
e 34 73
e 34 76
e 34 77
e 34 81
e 34 85
e 35 38
e 35 68
e 35 70
e 35 72
e 35 75
e 35 84
e 36 37
e 36 41
e 36 61
e 36 62
e 36 69
e 36 75
e 36 77
e 36 80
e 37 41
e 37 49
e 37 51
e 37 53
e 37 54
e 37 58
e 37 61
e 37 62
e 37 69
e 37 74
e 37 75
e 37 80
e 38 54
e 38 63
e 38 68
e 38 75
e 38 79
e 38 81
e 39 50
e 39 52
e 39 53
e 39 60
e 39 64
e 39 66
e 39 70
e 39 71
e 39 80
e 40 51
e 40 64
e 40 72
e 40 76
e 40 78
e 40 82
e 41 61
e 41 62
e 41 67
e 41 69
e 41 75
e 41 80
e 41 84
e 42 58
e 43 44
e 43 55
e 43 56
e 43 57
e 43 61
e 44 46
e 44 55
e 44 56
e 44 65
e 45 48
e 45 55
e 45 57
e 45 60
e 45 63
e 45 78
e 46 65
e 46 85
e 47 50
e 47 52
e 47 59
e 47 62
e 47 65
e 47 67
e 47 73
e 47 74
e 47 79
e 47 82
e 47 83
e 48 49
e 48 55
e 48 60
e 48 63
e 48 68
e 48 73
e 48 77
e 48 78
e 49 51
e 49 53
e 49 54
e 49 58
e 49 68
e 49 73
e 49 74
e 49 77
e 50 64
e 50 65
e 50 67
e 50 70
e 50 71
e 50 74
e 50 80
e 50 82
e 51 53
e 51 54
e 51 58
e 51 64
e 51 74
e 51 76
e 51 78
e 52 53
e 52 59
e 52 60
e 52 62
e 52 66
e 52 73
e 52 79
e 52 83
e 53 54
e 53 58
e 53 60
e 53 66
e 53 74
e 54 58
e 54 63
e 54 74
e 54 79
e 54 81
e 55 56
e 55 60
e 55 63
e 55 78
e 56 66
e 56 69
e 56 76
e 56 81
e 56 85
e 57 61
e 58 74
e 59 62
e 59 71
e 59 73
e 59 79
e 59 83
e 60 63
e 60 66
e 60 78
e 61 62
e 61 69
e 61 75
e 61 80
e 62 69
e 62 73
e 62 75
e 62 79
e 62 80
e 62 83
e 63 78
e 63 79
e 63 81
e 64 70
e 64 71
e 64 76
e 64 78
e 64 80
e 65 67
e 65 74
e 65 82
e 66 69
e 66 76
e 66 81
e 66 85
e 67 74
e 67 82
e 67 84
e 68 73
e 68 75
e 68 77
e 69 75
e 69 76
e 69 80
e 69 81
e 69 85
e 70 71
e 70 72
e 70 80
e 70 84
e 71 80
e 72 82
e 72 84
e 73 77
e 73 79
e 73 83
e 74 82
e 75 80
e 76 78
e 76 81
e 76 85
e 79 81
e 79 83
e 81 85
